2511
500000
332376
332376
332376
332376
332376
332376
332376
332376
332376
332376
332376
332376
332376
332376
332376
327489
327489
327489
327489
327489
327489
327489
327489
327489
327489
327489
327489
327489
327489
327489
327489
327314
327314
327314
327314
327314
327314
327314
327314
327314
327314
327314
327314
327314
327314
327314
327314
327314
327314
327314
327078
327078
327078
327078
327078
327078
327078
327078
327078
327078
327078
327078
327078
327078
327078
327078
327078
327078
327078
325586
325586
325586
325586
325586
325586
325586
325586
325586
325586
325586
324017
324017
324017
324017
324017
324017
324017
324017
324017
324017
321847
321847
321847
321847
321576
321576
321576
321576
319446
319446
319446
319446
319446
319446
319446
319446
316893
316893
316893
316893
316893
316893
316893
316893
316893
316893
316893
316893
316893
316893
316893
316893
316893
316893
316893
316303
316303
316303
316303
316303
316303
316303
316303
315731
315731
315731
315731
315731
315731
315731
315731
315731
315731
315731
315731
315731
315731
315731
315731
315731
315731
315004
315004
315004
315004
315004
315004
315004
315004
312377
312377
312377
312377
312318
312318
312318
312318
312318
310917
310917
310917
310917
310917
310917
310787
310787
310787
310787
310787
310787
310787
310787
310787
310787
310787
310787
310787
310787
310560
310560
310560
310560
310560
310560
310560
310560
310560
310560
307008
307008
307008
307008
307008
307008
307008
307008
307008
307008
307008
307008
306817
306817
306817
306817
306817
306817
306817
306817
306817
306817
306817
306817
306817
305283
305283
305283
305283
305283
305283
305283
305283
305283
305283
305283
303608
303608
302716
302716
302716
302716
302716
302716
302716
302716
302716
302716
302672
302672
302672
302672
302672
302672
302672
302672
302672
302672
302672
302672
302672
302672
302672
302672
302206
302206
302206
302206
302206
302206
302206
302206
302206
301939
301939
301939
301939
301939
301939
301939
298982
298982
298982
298982
298982
298982
298982
297263
297263
297263
297263
297263
297263
296087
296087
296087
296087
296087
296087
296087
296087
296087
296087
296087
296087
296087
296087
296087
296087
296087
296087
296087
296087
296038
296038
296038
295398
295398
295398
295398
295398
295398
295398
295398
295398
295398
295398
295398
295398
295398
295398
295398
295398
295118
295118
295118
295118
295118
295118
295118
293703
293703
293703
293703
293703
293703
293703
293703
293701
293701
293701
293701
293701
293701
293701
293701
293701
293701
293701
293701
293701
293701
293701
292957
292957
292957
292957
292957
292957
292857
292857
292857
292857
292857
292857
292857
292857
292857
292857
292857
292857
292857
292857
292857
292260
292260
292260
292260
292260
292260
292260
292260
292260
292260
292260
292260
292260
292260
292208
292208
292208
292208
292208
292208
292208
292208
292208
292208
292208
292208
292208
292208
292208
292208
292208
292208
292208
292208
291806
291806
291806
291806
291806
291806
291806
291806
291806
291806
291806
291806
291806
291806
291806
291806
291806
291806
291806
291370
291370
291370
291370
291370
291370
291370
291370
291370
291370
286602
286602
286602
286602
286602
286602
286602
286602
286602
286602
286602
286602
286602
286602
286602
286602
285209
285209
285209
285209
285209
285209
285209
285209
285209
285209
285209
285209
285209
285209
285209
285209
285209
285209
285209
285209
285107
285107
285107
285107
285107
285107
285107
285107
285107
285107
285107
285107
285107
285107
284957
284957
284957
284957
284957
284957
284957
284957
284957
283822
283822
283822
283822
283822
283822
283822
283822
283822
283822
283822
283822
283822
283822
283822
283822
283822
282295
282295
282295
282295
282295
282295
282295
282295
282295
282295
282295
282295
282295
282295
282295
282295
282295
282295
282295
282295
281747
281747
281747
281747
281007
281007
281007
281007
281007
281007
281007
281007
281007
281007
280148
280148
280148
280148
280148
280148
280148
280148
280148
280148
280148
280148
280148
277130
277130
277130
277130
277130
277130
277130
277130
274732
274732
274732
274732
274732
274732
274732
274732
274732
274107
274107
274107
274107
274107
274107
273534
273534
273534
273534
273534
273534
273534
272850
272850
272850
272850
272850
272850
272850
272850
272850
272850
272850
272850
272850
272850
272850
272850
272850
270151
270151
270151
270151
270151
268880
268880
268880
268880
268880
268880
268880
268880
268880
268880
268880
268880
268880
268880
268880
268880
268880
268880
268681
268681
268681
268681
268681
268681
268681
268681
264952
264952
264952
264952
264952
264952
264952
264952
264952
264952
264952
264952
264952
264952
264952
264441
264441
264441
264441
264441
264441
264441
264441
264441
264441
264441
264441
264441
264441
264423
264423
263399
263399
263399
263399
263399
263399
263399
263399
263399
263399
263399
263399
263399
263399
263399
263399
263399
262989
262989
262989
262989
262989
262989
262989
262683
262683
262683
262683
262683
262683
262683
262683
262683
262683
262683
262683
262683
262322
262322
262322
262322
262322
262322
262322
262322
261303
261303
261303
260836
260796
260796
260796
260796
260796
260796
260796
260796
260796
260204
260204
260204
260204
260204
260204
260204
260204
260204
260204
260204
260077
260077
260077
260077
260077
260077
260077
260077
260077
260077
260077
259726
259726
259726
259726
259726
259726
259726
259726
259726
259726
259726
259726
259726
259726
259726
259726
259726
259693
259693
259693
259693
259196
258902
258902
258902
258902
258887
258887
258887
258887
258887
258887
258887
258887
258887
258887
258887
258887
258887
258887
258887
255126
255126
255126
255126
255126
255126
255126
255126
255126
255126
255126
255126
255126
254949
254949
254949
254949
254949
254949
254949
254949
254834
254834
254834
254834
254834
254834
254834
254834
254834
254834
254834
254834
254834
254008
254008
254008
254008
254008
254008
254008
254008
254008
254008
254008
254008
254008
254008
254008
254008
254008
252916
252916
252916
252916
252694
252694
252694
252694
252694
252694
252694
252694
252694
252694
252694
252694
252694
252694
252694
252694
252694
251549
251549
251549
251549
251549
251549
251549
251549
251549
251549
251549
251549
251549
251549
251549
251549
251549
251549
251549
251262
251262
251262
251262
251262
251262
251262
251262
251262
251262
249726
249726
249726
247865
247865
247865
247865
247865
247865
247865
247865
247865
247865
247865
247865
247865
246933
246933
246933
246933
246933
246933
246933
246933
246933
246933
246933
246933
246933
246933
246933
246933
246933
244944
244944
244944
244944
244944
244944
244944
244944
244944
244944
244944
244944
244944
244944
244944
244944
244944
243954
243954
243504
243504
243504
243504
243504
243504
243323
243323
243323
243323
243323
243323
243323
243323
243323
243323
243323
243323
243323
243323
243323
243323
243323
243323
243323
243323
242885
242885
242885
242885
242885
242885
242885
242885
242885
242885
242885
242395
242395
242395
242395
242395
242395
242395
241283
241283
241283
241136
241136
241136
241136
241136
241136
241136
241073
241073
241073
241073
241073
241073
241073
241073
241073
241073
241073
241073
241073
241073
241073
241073
240020
240020
240020
240020
240020
240020
240020
240020
240020
240020
240020
240020
240020
240020
239902
239902
239902
239902
239902
239902
239902
239902
239902
239902
239902
239902
239902
239902
236881
236881
236881
236881
236881
236881
236881
236881
236881
236881
236881
235759
235759
235759
235759
235759
235759
235759
235759
235759
235759
235759
234874
234874
234874
234874
234874
234874
234874
234874
234874
234874
234874
234874
234874
234874
234874
234874
234874
234874
234874
231398
231398
231398
231398
231398
231398
231398
231398
231398
231398
231398
231398
231398
231398
231398
231398
231398
231398
231398
231398
230259
230259
229460
229460
229460
229460
229460
229460
229460
229460
229460
229460
229460
229460
229460
229460
229460
229313
229313
229313
229313
229313
229313
229313
229313
229313
229313
228521
228521
228521
228521
228521
226728
226728
226011
226011
226011
226011
226011
226011
226011
226011
226011
226011
226011
226011
226011
226011
226011
226011
226011
226011
226011
225344
225344
225344
225344
225344
225344
225344
224907
224907
224907
224907
224907
224907
224907
223261
223261
223261
223261
223261
223261
223261
223261
223261
223261
223261
223261
223261
222310
222310
222310
222310
222310
222310
222310
222310
222310
222310
222310
222310
222310
222310
222310
222310
222310
222310
222310
216094
216094
216094
216094
216094
216094
216071
216071
216071
216071
216071
216071
216071
216071
216071
216071
215655
215655
215655
215655
215655
215655
215655
215655
213495
213495
213495
213495
212185
212185
212185
212185
212185
212185
212185
212185
212185
212185
212185
212185
212185
212185
212185
211473
210067
210067
210067
210067
209868
209868
209868
209868
208850
208850
208850
208850
208850
208850
208850
208850
208850
208850
208850
208850
208850
208850
208850
208850
208101
208101
208101
208101
208101
208101
208101
208101
208101
208101
208101
208101
208101
208101
208101
205278
205278
205278
205278
205278
205278
205278
205278
205278
205278
205278
205278
205278
205278
205278
205030
205030
205030
205030
205030
205030
205030
205030
205030
205030
205030
205030
205030
205030
205030
203843
203843
203843
203843
203843
203843
203843
203171
203171
202719
202719
202478
202478
202478
202478
202478
202478
202478
202478
202478
202478
200272
200272
200272
200272
200272
200272
200272
200272
200272
200272
200272
200272
200272
200272
200272
200272
200272
200272
200272
199497
199497
199497
199497
199497
199497
199497
199497
199497
199497
199497
199497
198908
198908
198908
198908
198908
198908
198908
198908
198908
198908
198787
198787
198787
198787
198787
198787
198787
198787
198787
198787
196648
196648
196648
196648
196648
196648
196648
196648
196648
196648
196648
196422
196422
196422
196422
196422
196401
196401
196401
196401
196401
196401
196401
196401
196401
196401
196401
196401
196401
196401
196401
196401
196401
196401
191260
191260
191260
191260
191260
191260
191260
191260
191260
191260
191260
191260
191260
191260
191260
190947
190947
190947
190947
190947
188392
188392
188392
188175
188175
188175
188175
188175
188175
188175
188175
188175
186667
186667
185865
185865
185865
185865
185865
185865
185865
185865
185865
185865
185865
185865
185865
185865
183939
183939
183939
183939
183939
183939
183939
183939
183939
183939
183732
183732
183183
183183
183183
180755
180755
180755
179405
179405
179405
179405
179405
179405
179405
179405
178756
178756
178756
178756
178756
176586
176586
176586
176586
176586
176586
176586
176586
176586
176586
176586
176586
176586
176586
176586
176586
176586
176586
176586
176383
176383
176383
176383
176383
176383
176383
176383
176383
176383
176383
176383
176383
176383
176383
176383
176383
176383
175607
175607
175607
175607
175607
175607
175607
175607
175607
175607
175607
175607
175607
175607
175607
175607
175607
173509
173509
173509
173509
173509
173509
173509
173509
173509
173509
173509
173509
171960
171960
171960
171960
171960
171960
171960
171364
171364
171364
171364
171364
171364
171364
171364
168743
168743
168743
168743
168743
168743
168743
168743
168743
168056
168056
168056
168056
167598
167598
167598
167598
167598
167598
167598
167598
167598
167598
167598
167598
167598
167598
167598
167598
167598
167598
167598
167598
167344
167344
167080
167080
167080
167080
167080
167080
167080
167080
167080
167080
167080
167080
167080
167080
167080
167080
167080
165960
165960
165960
165960
165960
165960
165960
165960
165960
165960
165960
165960
165960
165960
165960
165960
165960
163909
163909
163909
163909
163909
163909
163909
163909
163909
163909
163909
163909
163909
162736
162736
162736
162736
162736
162736
162736
162736
162736
162736
162268
162268
162268
162268
162268
162268
162268
162268
162268
162268
162268
162268
161961
161961
161961
161961
161961
161961
161961
161961
161961
161961
161961
161961
161961
161961
161961
161961
161961
161961
161248
161248
160975
160975
160975
160975
160975
160975
160975
160975
160975
160975
160598
160598
160598
160598
160598
160598
160598
160598
159841
159841
159287
159287
159287
159287
159287
156827
156827
156827
156827
156827
156827
156827
156827
156827
156827
156827
156827
156564
156564
156564
156564
156559
156559
156559
156559
156559
156559
156559
156559
156559
156559
156559
156559
156559
156528
156528
151679
151679
151679
151679
151178
151178
151178
151178
151178
151178
151178
151178
151178
151178
151178
150422
150422
150422
150422
150422
150422
150422
150422
150422
150422
150422
150422
150422
150422
149547
149547
149547
149547
149547
149547
147212
147212
147212
147212
147212
147212
147212
147212
147212
147212
147212
147212
147212
147212
147212
147212
147212
147212
142963
142963
142963
142963
142963
142963
140261
140261
140261
140261
140261
140261
140261
140261
140205
140205
140205
140205
139785
139785
139785
139785
139785
139785
139785
139785
139785
139785
139275
139275
139275
139275
139275
139275
139275
138949
138949
138685
138685
138685
136797
136797
136797
136797
136797
136797
136797
136797
136797
136797
136797
136797
136797
136797
135847
135847
135847
135847
135847
135847
135847
135847
135847
135847
135847
135847
135786
135786
135786
135786
135786
135786
135786
135786
135786
135786
135786
132388
132388
132388
132388
132388
132388
132388
132388
132388
132388
132388
132388
132388
132388
132388
132388
132388
132038
132038
132038
132038
132038
132038
132038
132038
132038
132038
132038
132038
132038
132038
132038
132038
132038
132038
131616
131616
131616
131616
131616
131616
131616
131616
131616
131616
130789
130789
130789
130789
130789
130789
130789
130789
130596
130596
130596
130596
130596
130596
130596
130596
130596
130596
130596
130596
130596
130596
130596
130596
130596
130596
129316
129316
129316
129316
129316
128768
128768
128768
128768
128768
128768
128768
128768
128768
128768
128768
128768
128768
128768
128768
128768
128768
128768
128768
128768
125952
125952
125952
124742
124742
124742
124742
123255
123255
123255
123255
121194
121194
121194
121194
121194
121194
121194
121194
121194
121194
121194
121194
121194
121194
121194
121194
121194
121194
120881
120881
120881
120881
120881
120881
120881
120881
120881
120881
120881
120881
120881
119917
119917
119917
119917
119917
119917
119917
119917
119917
119917
119917
118012
116989
116989
116989
116989
116989
116989
116576
116576
116576
116576
116576
116576
116576
116576
116576
116576
116576
116576
115911
115911
115911
115911
115911
115911
115911
115911
115911
115911
115635
113343
113343
113343
113343
113343
113343
113343
113343
112403
112403
112403
112245
112245
112245
112245
112245
112245
112245
112245
112245
112245
112245
112245
111898
111898
109600
109600
108582
108582
108582
108582
108582
108582
108582
108582
108582
108582
108582
108582
108365
108365
108365
107630
107630
107630
107630
107630
106692
106692
106692
106692
105042
105042
105042
105042
105042
105042
105042
105042
105042
105042
105042
105042
105042
105042
105042
105042
105042
105042
105042
104904
104904
104904
104904
104904
104904
104904
104904
104904
104904
104904
104904
104904
104904
97388
97388
97388
97388
97388
97388
97388
97388
97388
97388
97388
97388
97388
97388
97244
97244
97244
97244
97244
97244
97226
97226
97226
97226
97226
97226
97226
97226
97226
97226
97226
97226
97098
97098
97098
97098
97098
97098
97098
97098
97098
97098
96353
96353
96353
96353
96353
96353
96353
96353
96353
95368
95368
95368
95368
95368
95368
95368
95368
95368
95368
95368
95368
93868
93868
93868
93868
93868
93868
93868
93868
93868
93868
93868
93868
93868
93868
93868
93868
93868
93868
93868
93868
93574
93574
93574
93285
93285
93285
93285
93285
93285
93285
93285
92726
92726
92726
92726
92345
92345
92345
92345
92345
92345
91693
91693
91693
91693
91693
91693
91693
91343
91343
91343
91343
91343
91343
91343
91343
90529
90529
90529
90529
90529
89769
89769
89769
89769
89769
89769
89769
89769
89769
89769
89769
89769
89769
89769
89769
89769
89083
89083
89083
89083
89083
89083
89083
89083
89083
89083
88544
88544
88544
88544
88544
87316
87316
87316
87316
87316
87295
87295
87295
87295
87295
87295
87295
87295
87295
87295
87295
87295
87295
87295
87295
85557
85557
85557
85557
85557
85557
85557
85557
85557
85557
85557
85557
85557
84382
84382
84382
84382
84382
84382
84382
84382
84382
84382
83255
83255
83255
83255
83255
83255
80049
80049
80049
80049
76369
76369
76369
76369
76369
76369
76369
76369
76369
76369
76369
76369
76369
76369
75700
75700
75700
75700
75700
75700
75700
75700
75700
75700
75385
75385
75385
75385
75385
75385
75385
75385
75385
75385
73969
73969
73969
73969
73969
73969
73969
73969
73969
73969
73969
73969
73969
72893
72893
72893
72893
72893
72893
72893
72893
72893
72893
72893
72893
72425
72425
72425
72425
72425
72425
72425
72425
72425
72425
72425
72425
72425
72425
72425
72425
72425
72425
72425
71855
71855
71855
71855
71855
71855
71855
71855
71855
71855
71855
70736
70736
70736
70736
70736
70736
70736
70736
70736
70736
70736
70736
70736
70736
70736
70736
70692
70692
70692
70692
70692
70692
70176
70176
70176
70176
70176
70176
70176
70176
70176
70176
70176
70089
70089
70089
70089
70089
70089
70089
70089
68598
68598
68598
68598
67412
67412
67412
67412
67412
67412
67412
67412
